(set-logic ALL)
(declare-fun var0 () String)
(assert (str.in_re var0 (re.++ (re.union (re.* (str.to_re "000")) (re.* (str.to_re "11"))) (re.++ (re.* (re.union (str.to_re "22") (str.to_re "333"))) (re.++ (re.* (re.* (str.to_re "4"))) (re.++ (re.+ (re.* (str.to_re "5"))) (re.++ (re.+ (re.union (str.to_re "666") (str.to_re "7"))) (re.++ (re.* (re.+ (str.to_re "88"))) (re.++ (re.union (re.+ (str.to_re "999")) (re.+ (str.to_re "aa"))) (re.++ (re.+ (re.* (str.to_re "bbb"))) (re.++ (re.+ (re.union (str.to_re "cc") (str.to_re "ddd"))) (re.++ (re.+ (re.+ (str.to_re "eee"))) (re.++ (re.+ (re.+ (str.to_re "f"))) (re.++ (re.* (re.union (str.to_re "gg") (str.to_re "hhh"))) (re.++ (re.union (re.union (str.to_re "iii") (str.to_re "j")) (re.union (str.to_re "k") (str.to_re "lll"))) (re.++ (re.* (re.+ (str.to_re "mmm"))) (re.++ (re.union (re.+ (str.to_re "nnn")) (re.+ (str.to_re "ooo"))) (re.++ (re.* (re.* (str.to_re "pp"))) (re.++ (re.* (re.* (str.to_re "qq"))) (re.++ (re.* (re.* (str.to_re "rr"))) (re.++ (re.+ (re.* (str.to_re "ss"))) (re.++ (re.* (re.union (str.to_re "t") (str.to_re "u"))) (re.++ (re.* (re.union (str.to_re "vvv") (str.to_re "ww"))) (re.++ (re.+ (re.union (str.to_re "xxx") (str.to_re "yyy"))) (re.++ (re.+ (re.* (str.to_re "z"))) (re.++ (re.* (re.* (str.to_re "AA"))) (re.++ (re.union (re.union (str.to_re "B") (str.to_re "C")) (re.union (str.to_re "DDD") (str.to_re "EEE"))) (re.++ (re.union (re.* (str.to_re "FF")) (re.* (str.to_re "GGG"))) (re.++ (re.union (re.+ (str.to_re "H")) (re.+ (str.to_re "I"))) (re.++ (re.+ (re.+ (str.to_re "JJJ"))) (re.++ (re.+ (re.+ (str.to_re "K"))) (re.++ (re.+ (re.+ (str.to_re "LLL"))) (re.++ (re.union (re.union (str.to_re "MM") (str.to_re "NN")) (re.union (str.to_re "OOO") (str.to_re "P"))) (re.++ (re.union (re.* (str.to_re "QQQ")) (re.* (str.to_re "R"))) (re.++ (re.union (re.+ (str.to_re "S")) (re.+ (str.to_re "TT"))) (re.++ (re.* (re.* (str.to_re "UU"))) (re.++ (re.* (re.+ (str.to_re "VVV"))) (re.++ (re.+ (re.* (str.to_re "WWW"))) (re.++ (re.* (re.* (str.to_re "X"))) (re.++ (re.* (re.union (str.to_re "YY") (str.to_re "ZZ"))) (re.++ (re.* (re.union (str.to_re "!!!") (str.to_re """"))) (re.++ (re.* (re.* (str.to_re "#"))) (re.++ (re.union (re.+ (str.to_re "$$$")) (re.+ (str.to_re "%%%"))) (re.++ (re.* (re.union (str.to_re "&") (str.to_re "'"))) (re.++ (re.* (re.+ (str.to_re "(("))) (re.++ (re.union (re.* (str.to_re ")))")) (re.* (str.to_re "*"))) (re.++ (re.* (re.* (str.to_re "++"))) (re.++ (re.union (re.union (str.to_re ",,") (str.to_re "-")) (re.union (str.to_re ".") (str.to_re "//"))) (re.++ (re.union (re.+ (str.to_re ":::")) (re.+ (str.to_re ";;"))) (re.++ (re.union (re.* (str.to_re "<<")) (re.* (str.to_re "==="))) (re.++ (re.+ (re.* (str.to_re ">>"))) (re.++ (re.+ (re.union (str.to_re "???") (str.to_re "@@"))) (re.++ (re.+ (re.+ (str.to_re "[["))) (re.++ (re.union (re.+ (str.to_re "\\\\\\")) (re.+ (str.to_re "]]"))) (re.++ (re.union (re.* (str.to_re "^^^")) (re.* (str.to_re "__"))) (re.++ (re.union (re.union (str.to_re "``") (str.to_re "{{")) (re.union (str.to_re "||") (str.to_re "}"))) (re.++ (re.+ (re.+ (str.to_re "~"))) (re.++ (re.+ (re.* (str.to_re "0"))) (re.++ (re.union (re.+ (str.to_re "1")) (re.+ (str.to_re "222"))) (re.++ (re.union (re.union (str.to_re "33") (str.to_re "4")) (re.union (str.to_re "555") (str.to_re "66"))) (re.++ (re.+ (re.+ (str.to_re "7"))) (re.++ (re.+ (re.union (str.to_re "88") (str.to_re "9"))) (re.++ (re.+ (re.* (str.to_re "aaa"))) (re.++ (re.* (re.union (str.to_re "bb") (str.to_re "cc"))) (re.++ (re.+ (re.+ (str.to_re "dd"))) (re.++ (re.+ (re.+ (str.to_re "eee"))) (re.++ (re.+ (re.+ (str.to_re "fff"))) (re.++ (re.* (re.union (str.to_re "gg") (str.to_re "hhh"))) (re.++ (re.union (re.* (str.to_re "iii")) (re.* (str.to_re "jjj"))) (re.++ (re.union (re.union (str.to_re "kk") (str.to_re "ll")) (re.union (str.to_re "mmm") (str.to_re "nn"))) (re.++ (re.+ (re.* (str.to_re "o"))) (re.++ (re.* (re.* (str.to_re "pp"))) (re.++ (re.union (re.* (str.to_re "qqq")) (re.* (str.to_re "r"))) (re.++ (re.* (re.+ (str.to_re "ss"))) (re.++ (re.union (re.union (str.to_re "ttt") (str.to_re "u")) (re.union (str.to_re "vv") (str.to_re "w"))) (re.++ (re.union (re.union (str.to_re "xxx") (str.to_re "yyy")) (re.union (str.to_re "z") (str.to_re "AA"))) (re.++ (re.+ (re.* (str.to_re "B"))) (re.++ (re.+ (re.union (str.to_re "C") (str.to_re "D"))) (re.++ (re.union (re.union (str.to_re "E") (str.to_re "FF")) (re.union (str.to_re "GG") (str.to_re "HH"))) (re.++ (re.union (re.+ (str.to_re "II")) (re.+ (str.to_re "JJ"))) (re.++ (re.+ (re.* (str.to_re "KKK"))) (re.++ (re.union (re.+ (str.to_re "LL")) (re.+ (str.to_re "MMM"))) (re.++ (re.* (re.union (str.to_re "NNN") (str.to_re "OOO"))) (re.++ (re.union (re.union (str.to_re "P") (str.to_re "QQ")) (re.union (str.to_re "RRR") (str.to_re "SSS"))) (re.++ (re.+ (re.union (str.to_re "TT") (str.to_re "UUU"))) (re.++ (re.+ (re.* (str.to_re "VVV"))) (re.++ (re.* (re.+ (str.to_re "WW"))) (re.++ (re.union (re.+ (str.to_re "XXX")) (re.+ (str.to_re "YYY"))) (re.++ (re.union (re.union (str.to_re "Z") (str.to_re "!!")) (re.union (str.to_re """") (str.to_re "##"))) (re.++ (re.+ (re.+ (str.to_re "$$"))) (re.++ (re.* (re.union (str.to_re "%%%") (str.to_re "&&&"))) (re.++ (re.* (re.union (str.to_re "''") (str.to_re "("))) (re.++ (re.union (re.union (str.to_re "))") (str.to_re "*")) (re.union (str.to_re "+++") (str.to_re ","))) (re.++ (re.union (re.union (str.to_re "---") (str.to_re "...")) (re.union (str.to_re "///") (str.to_re "::"))) (re.++ (re.* (re.* (str.to_re ";;"))) (re.++ (re.+ (re.* (str.to_re "<"))) (re.++ (re.union (re.* (str.to_re "==")) (re.* (str.to_re ">"))) (re.++ (re.+ (re.* (str.to_re "?"))) (re.++ (re.union (re.* (str.to_re "@@@")) (re.* (str.to_re "[[["))) (re.++ (re.union (re.+ (str.to_re "\\\\")) (re.+ (str.to_re "]"))) (re.++ (re.union (re.+ (str.to_re "^")) (re.+ (str.to_re "__"))) (re.++ (re.* (re.+ (str.to_re "```"))) (re.++ (re.+ (re.+ (str.to_re "{{"))) (re.++ (re.union (re.+ (str.to_re "|||")) (re.+ (str.to_re "}}"))) (re.++ (re.+ (re.* (str.to_re "~~~"))) (re.++ (re.+ (re.+ (str.to_re "0"))) (re.++ (re.* (re.union (str.to_re "111") (str.to_re "22"))) (re.++ (re.union (re.* (str.to_re "33")) (re.* (str.to_re "444"))) (re.++ (re.+ (re.+ (str.to_re "55"))) (re.++ (re.union (re.+ (str.to_re "66")) (re.+ (str.to_re "77"))) (re.++ (re.+ (re.* (str.to_re "8"))) (re.++ (re.* (re.union (str.to_re "999") (str.to_re "a"))) (re.++ (re.* (re.* (str.to_re "b"))) (re.++ (re.+ (re.+ (str.to_re "ccc"))) (re.++ (re.union (re.union (str.to_re "d") (str.to_re "e")) (re.union (str.to_re "ff") (str.to_re "gg"))) (re.++ (re.union (re.* (str.to_re "hh")) (re.* (str.to_re "iii"))) (re.++ (re.* (re.* (str.to_re "jj"))) (re.++ (re.* (re.* (str.to_re "k"))) (re.++ (re.union (re.* (str.to_re "l")) (re.* (str.to_re "m"))) (re.++ (re.+ (re.+ (str.to_re "nn"))) (re.++ (re.union (re.union (str.to_re "ooo") (str.to_re "ppp")) (re.union (str.to_re "q") (str.to_re "rr"))) (re.++ (re.* (re.* (str.to_re "s"))) (re.++ (re.union (re.union (str.to_re "ttt") (str.to_re "u")) (re.union (str.to_re "vv") (str.to_re "w"))) (re.++ (re.* (re.* (str.to_re "xx"))) (re.++ (re.* (re.+ (str.to_re "yyy"))) (re.++ (re.+ (re.* (str.to_re "z"))) (re.++ (re.* (re.+ (str.to_re "AA"))) (re.++ (re.* (re.union (str.to_re "B") (str.to_re "CC"))) (re.++ (re.union (re.+ (str.to_re "DD")) (re.+ (str.to_re "EE"))) (re.++ (re.union (re.union (str.to_re "FFF") (str.to_re "G")) (re.union (str.to_re "HH") (str.to_re "III"))) (re.++ (re.+ (re.* (str.to_re "JJJ"))) (re.++ (re.+ (re.union (str.to_re "KK") (str.to_re "LL"))) (re.++ (re.* (re.+ (str.to_re "MM"))) (re.++ (re.union (re.union (str.to_re "NN") (str.to_re "O")) (re.union (str.to_re "PP") (str.to_re "Q"))) (re.++ (re.* (re.* (str.to_re "RRR"))) (re.++ (re.* (re.union (str.to_re "S") (str.to_re "T"))) (re.++ (re.* (re.* (str.to_re "U"))) (re.++ (re.union (re.union (str.to_re "VV") (str.to_re "WW")) (re.union (str.to_re "XX") (str.to_re "YYY"))) (re.++ (re.union (re.* (str.to_re "ZZ")) (re.* (str.to_re "!!"))) (re.++ (re.+ (re.+ (str.to_re """"""""))) (re.++ (re.union (re.+ (str.to_re "##")) (re.+ (str.to_re "$$"))) (re.++ (re.+ (re.union (str.to_re "%%%") (str.to_re "&"))) (re.++ (re.union (re.union (str.to_re "''") (str.to_re "(")) (re.union (str.to_re ")") (str.to_re "**"))) (re.++ (re.union (re.union (str.to_re "++") (str.to_re ",,,")) (re.union (str.to_re "--") (str.to_re "..."))) (re.++ (re.+ (re.union (str.to_re "/") (str.to_re ":"))) (re.++ (re.* (re.+ (str.to_re ";;;"))) (re.++ (re.+ (re.+ (str.to_re "<"))) (re.++ (re.* (re.+ (str.to_re "=="))) (re.++ (re.* (re.+ (str.to_re ">>"))) (re.++ (re.union (re.* (str.to_re "???")) (re.* (str.to_re "@@@"))) (re.++ (re.union (re.* (str.to_re "[")) (re.* (str.to_re "\\\\\\"))) (re.++ (re.+ (re.union (str.to_re "]]") (str.to_re "^"))) (re.++ (re.union (re.union (str.to_re "__") (str.to_re "```")) (re.union (str.to_re "{{") (str.to_re "||"))) (re.++ (re.* (re.+ (str.to_re "}"))) (re.++ (re.* (re.* (str.to_re "~~~"))) (re.++ (re.* (re.+ (str.to_re "0"))) (re.++ (re.union (re.+ (str.to_re "11")) (re.+ (str.to_re "222"))) (re.++ (re.+ (re.* (str.to_re "3"))) (re.++ (re.+ (re.union (str.to_re "444") (str.to_re "5"))) (re.++ (re.union (re.+ (str.to_re "66")) (re.+ (str.to_re "77"))) (re.++ (re.+ (re.* (str.to_re "88"))) (re.++ (re.union (re.+ (str.to_re "9")) (re.+ (str.to_re "aaa"))) (re.++ (re.union (re.* (str.to_re "bb")) (re.* (str.to_re "ccc"))) (re.++ (re.* (re.+ (str.to_re "ddd"))) (re.++ (re.+ (re.* (str.to_re "eee"))) (re.++ (re.* (re.union (str.to_re "fff") (str.to_re "gg"))) (re.++ (re.* (re.union (str.to_re "hhh") (str.to_re "iii"))) (re.++ (re.+ (re.+ (str.to_re "j"))) (re.++ (re.union (re.* (str.to_re "kk")) (re.* (str.to_re "ll"))) (re.++ (re.* (re.union (str.to_re "mmm") (str.to_re "nnn"))) (re.+ (re.+ (str.to_re "ooo")))))))))))))))))))))))))))))))))))))))))))))))))))))))))))))))))))))))))))))))))))))))))))))))))))))))))))))))))))))))))))))))))))))))))))))))))))))))))))))))))))))))))))))
(check-sat)